NAME : kroE100-C-3-1-a__wo_group_embedding_same_priority_ls20__23081.tour
COMMENT : Length = 23081.000
COMMENT : Generated by evaluate_ctspd.py for wo_group_embedding_same_priority_ls20
TYPE : TOUR
DIMENSION : 100
TOUR_SECTION
1
69
51
21
74
7
76
12
98
59
36
28
23
15
20
56
49
62
64
95
32
58
63
88
35
40
25
54
45
99
17
84
50
60
10
80
57
97
65
8
5
42
48
90
30
66
31
9
13
75
41
87
67
27
92
82
4
2
11
96
85
77
37
70
6
34
53
78
100
29
24
18
94
19
86
43
39
91
55
93
22
33
38
68
72
44
52
14
61
71
89
81
79
26
46
3
47
16
73
83
-1
EOF
